benchmarks/VRPTW/TSPTW/solution/n40w60.002.txt.solution
1 39 35 29 9 7 31 21 15 4 19 25 27 16 28 2 11 36 14 34 10 6 18 3 26 30 13 22 20 38 24 17 12 5 23 33 37 32 41 40 8 
470
